Problem:    antitrust
Rows:       13
Columns:    14 (7 integer, 7 binary)
Non-zeros:  67
Status:     INTEGER OPTIMAL
Objective:  z = 30 (MINimum)

   No.   Row name        Activity     Lower bound   Upper bound
------ ------------    ------------- ------------- -------------
     1 fatturato_azienda1[1]
                                 344           344             = 
     2 fatturato_azienda1[2]
                                 293           293             = 
     3 fatturato_azienda1[3]
                                 356           356             = 
     4 fatturato_azienda2[1]
                                   0            -0             = 
     5 fatturato_azienda2[2]
                                   0            -0             = 
     6 fatturato_azienda2[3]
                                   0            -0             = 
     7 z                          30                             
     8 valpos[1]                  34            -0               
     9 valpos[2]                   9            -0               
    10 valpos[3]                  60            -0               
    11 valneg[1]                  26            -0               
    12 valneg[2]                  51            -0               
    13 valneg[3]                   0            -0               

   No. Column name       Activity     Lower bound   Upper bound
------ ------------    ------------- ------------- -------------
     1 x[1]         *              1             0             1 
     2 x[2]         *              1             0             1 
     3 x[3]         *              1             0             1 
     4 x[4]         *              0             0             1 
     5 x[5]         *              1             0             1 
     6 x[6]         *              0             0             1 
     7 x[7]         *              0             0             1 
     8 delta                      30             0               
     9 y1[1]                     170                             
    10 y1[2]                     157                             
    11 y1[3]                     163                             
    12 y2[1]                     174                             
    13 y2[2]                     136                             
    14 y2[3]                     193                             

Integer feasibility conditions:

KKT.PE: max.abs.err = 0.00e+00 on row 0
        max.rel.err = 0.00e+00 on row 0
        High quality

KKT.PB: max.abs.err = 0.00e+00 on row 0
        max.rel.err = 0.00e+00 on row 0
        High quality

End of output
